CapLotSizing_PM/src/Instancias/TCHSLT/6i12p4m/NBB05.OUT
 CG ITER, OVMR, OVMRUB =           1   42303.1210938   36168.1992188
 CG ITER, OVMR, OVMRUB =           2   36168.1992188   36168.1992188
 CG ITER, OVMR, OVMRUB =           3   36168.1992188   36168.1992188
 CG ITER, OVMR, OVMRUB =           4   36168.1992188   36168.1992188
 CG ITER, OVMR, OVMRUB =           5   36168.1992188   36168.1992188
 CG ITER, OVMR, OVMRUB =           6   36168.1992188   36168.1992188
 CG ITER, OVMR, OVMRUB =           7   36168.1992188   36168.1992188
 CG ITER, OVMR, OVMRUB =           8   36168.1992188   36168.1992188
 CG ITER, OVMR, OVMRUB =           9   36168.1992188   36168.1992188
 CG ITER, OVMR, OVMRUB =          10   36168.1992188   36168.1992188
OVLB =   36168.1992188 OVLUB =   36168.1992188 TIME =       0.2700000
